(set-logic BV)
(set-info :status unknown)
(assert
 (forall ((ez_25 (_ BitVec 1)) (ez_26 (_ BitVec 1)) (ez_27 (_ BitVec 1)) (ez_28 (_ BitVec 1)) (ez_29 (_ BitVec 1)) (ez_30 (_ BitVec 1)) (ez_31 (_ BitVec 1)) (ez_32 (_ BitVec 1)) (ez_33 (_ BitVec 1)) (ez_34 (_ BitVec 1)) (ez_35 (_ BitVec 1)) (ez_36 (_ BitVec 1)) (ez_37 (_ BitVec 1)) (ez_38 (_ BitVec 1)) (ez_39 (_ BitVec 1)) (ez_40 (_ BitVec 1)) (ez_41 (_ BitVec 1)) (ez_42 (_ BitVec 1)) (ez_43 (_ BitVec 1)) (ez_44 (_ BitVec 1)) (ez_45 (_ BitVec 1)) (ez_46 (_ BitVec 1)) (ez_47 (_ BitVec 1)) (ez_48 (_ BitVec 1)) (ez_49 (_ BitVec 1)) )(exists ((ezaux_1_49 (_ BitVec 6)) (czaux_1_49 (_ BitVec 6)) (ez_1 (_ BitVec 1)) (ez_2 (_ BitVec 1)) (ez_3 (_ BitVec 1)) (ez_4 (_ BitVec 1)) (ez_5 (_ BitVec 1)) (ez_6 (_ BitVec 1)) (ez_7 (_ BitVec 1)) (ez_8 (_ BitVec 1)) (ez_9 (_ BitVec 1)) (ez_10 (_ BitVec 1)) (ez_11 (_ BitVec 1)) (ez_12 (_ BitVec 1)) (ez_13 (_ BitVec 1)) (ez_14 (_ BitVec 1)) (ez_15 (_ BitVec 1)) (ez_16 (_ BitVec 1)) (ez_17 (_ BitVec 1)) (ez_18 (_ BitVec 1)) (ez_19 (_ BitVec 1)) (ez_20 (_ BitVec 1)) (ez_21 (_ BitVec 1)) (ez_22 (_ BitVec 1)) (ez_23 (_ BitVec 1)) (ez_24 (_ BitVec 1)) (s_1 (_ BitVec 1)) (cz_2 (_ BitVec 1)) (cz_3 (_ BitVec 1)) (cz_9 (_ BitVec 1)) (cz_10 (_ BitVec 1)) (s_2 (_ BitVec 1)) (cz_8 (_ BitVec 1)) (cz_15 (_ BitVec 1)) (cz_16 (_ BitVec 1)) (s_3 (_ BitVec 1)) (cz_4 (_ BitVec 1)) (cz_5 (_ BitVec 1)) (cz_11 (_ BitVec 1)) (cz_12 (_ BitVec 1)) (s_4 (_ BitVec 1)) (cz_17 (_ BitVec 1)) (cz_18 (_ BitVec 1)) (s_5 (_ BitVec 1)) (cz_6 (_ BitVec 1)) (cz_7 (_ BitVec 1)) (cz_13 (_ BitVec 1)) (cz_14 (_ BitVec 1)) (s_6 (_ BitVec 1)) (cz_19 (_ BitVec 1)) (cz_20 (_ BitVec 1)) (s_7 (_ BitVec 1)) (cz_1 (_ BitVec 1)) (s_8 (_ BitVec 1)) (cz_21 (_ BitVec 1)) (s_9 (_ BitVec 1)) (cz_23 (_ BitVec 1)) (cz_24 (_ BitVec 1)) (s_10 (_ BitVec 1)) (cz_22 (_ BitVec 1)) (cz_29 (_ BitVec 1)) (cz_30 (_ BitVec 1)) (s_11 (_ BitVec 1)) (cz_25 (_ BitVec 1)) (cz_26 (_ BitVec 1)) (s_12 (_ BitVec 1)) (cz_31 (_ BitVec 1)) (cz_32 (_ BitVec 1)) (s_13 (_ BitVec 1)) (cz_27 (_ BitVec 1)) (cz_28 (_ BitVec 1)) (s_14 (_ BitVec 1)) (cz_33 (_ BitVec 1)) (cz_34 (_ BitVec 1)) (s_15 (_ BitVec 1)) (s_16 (_ BitVec 1)) (cz_35 (_ BitVec 1)) (s_17 (_ BitVec 1)) (cz_37 (_ BitVec 1)) (cz_38 (_ BitVec 1)) (s_18 (_ BitVec 1)) (cz_36 (_ BitVec 1)) (cz_43 (_ BitVec 1)) (cz_44 (_ BitVec 1)) (s_19 (_ BitVec 1)) (cz_39 (_ BitVec 1)) (cz_40 (_ BitVec 1)) (s_20 (_ BitVec 1)) (cz_45 (_ BitVec 1)) (cz_46 (_ BitVec 1)) (s_21 (_ BitVec 1)) (cz_41 (_ BitVec 1)) (cz_42 (_ BitVec 1)) (s_22 (_ BitVec 1)) (cz_47 (_ BitVec 1)) (cz_48 (_ BitVec 1)) (s_23 (_ BitVec 1)) (s_24 (_ BitVec 1)) (cz_49 (_ BitVec 1)) )(let (($x646 (bvule czaux_1_49 (ite (bvule ezaux_1_49 ((_ zero_extend 4) (_ bv3 2))) ezaux_1_49 ((_ zero_extend 4) (_ bv3 2))))))
 (let (($x648 (= s_24 (bvadd cz_42 cz_49))))
 (let (($x651 (= s_23 (bvadd cz_29 cz_36))))
 (let (($x657 (and (= s_22 (bvadd cz_40 (bvadd cz_41 (bvadd cz_47 cz_48)))) (and $x651 (and $x648 $x646)))))
 (let (($x667 (and (= s_20 (bvadd cz_38 (bvadd cz_39 (bvadd cz_45 cz_46)))) (and (= s_21 (bvadd cz_34 (bvadd cz_35 (bvadd cz_41 cz_42)))) $x657))))
 (let (($x677 (and (= s_18 (bvadd cz_36 (bvadd cz_37 (bvadd cz_43 cz_44)))) (and (= s_19 (bvadd cz_32 (bvadd cz_33 (bvadd cz_39 cz_40)))) $x667))))
 (let (($x684 (= s_16 (bvadd cz_28 cz_35))))
 (let (($x685 (and $x684 (and (= s_17 (bvadd cz_30 (bvadd cz_31 (bvadd cz_37 cz_38)))) $x677))))
 (let (($x687 (= s_15 (bvadd cz_15 cz_22))))
 (let (($x693 (and (= s_14 (bvadd cz_26 (bvadd cz_27 (bvadd cz_33 cz_34)))) (and $x687 $x685))))
 (let (($x703 (and (= s_12 (bvadd cz_24 (bvadd cz_25 (bvadd cz_31 cz_32)))) (and (= s_13 (bvadd cz_20 (bvadd cz_21 (bvadd cz_27 cz_28)))) $x693))))
 (let (($x713 (and (= s_10 (bvadd cz_22 (bvadd cz_23 (bvadd cz_29 cz_30)))) (and (= s_11 (bvadd cz_18 (bvadd cz_19 (bvadd cz_25 cz_26)))) $x703))))
 (let (($x720 (= s_8 (bvadd cz_14 cz_21))))
 (let (($x721 (and $x720 (and (= s_9 (bvadd cz_16 (bvadd cz_17 (bvadd cz_23 cz_24)))) $x713))))
 (let (($x729 (and (= s_6 (bvadd cz_12 (bvadd cz_13 (bvadd cz_19 cz_20)))) (and (= s_7 (bvadd cz_1 cz_8)) $x721))))
 (let (($x739 (and (= s_4 (bvadd cz_10 (bvadd cz_11 (bvadd cz_17 cz_18)))) (and (= s_5 (bvadd cz_6 (bvadd cz_7 (bvadd cz_13 cz_14)))) $x729))))
 (let (($x749 (and (= s_2 (bvadd cz_8 (bvadd cz_9 (bvadd cz_15 cz_16)))) (and (= s_3 (bvadd cz_4 (bvadd cz_5 (bvadd cz_11 cz_12)))) $x739))))
 (let ((?x755 (bvadd cz_1 cz_2 cz_3 cz_4 cz_5 cz_6 cz_7 ez_2 ez_3 ez_4 ez_5 ez_6 ez_7)))
 (let (($x1045 (= s_24 (bvadd ez_42 ez_49))))
 (let (($x1047 (= s_23 (bvadd ez_29 ez_36))))
 (let (($x1049 (= s_22 (bvadd ez_40 ez_41 ez_47 ez_48))))
 (let (($x1051 (= s_21 (bvadd ez_34 ez_35 ez_41 ez_42))))
 (let (($x1053 (= s_20 (bvadd ez_38 ez_39 ez_45 ez_46))))
 (let (($x1055 (= s_19 (bvadd ez_32 ez_33 ez_39 ez_40))))
 (let (($x1057 (= s_18 (bvadd ez_36 ez_37 ez_43 ez_44))))
 (let (($x1059 (= s_17 (bvadd ez_30 ez_31 ez_37 ez_38))))
 (let (($x1061 (= s_16 (bvadd ez_28 ez_35))))
 (let (($x767 (= s_15 (bvadd ez_15 ez_22))))
 (let (($x1063 (= s_14 (bvadd ez_26 ez_27 ez_33 ez_34))))
 (let (($x1071 (= s_10 (bvadd ez_22 ez_23 ez_29 ez_30))))
 (let (($x778 (= s_9 (bvadd ez_16 ez_17 ez_23 ez_24))))
 (let (($x780 (= s_8 (bvadd ez_14 ez_21))))
 (let (($x782 (= s_7 (bvadd ez_1 ez_8))))
 (let (($x784 (= s_6 (bvadd ez_12 ez_13 ez_19 ez_20))))
 (let (($x786 (= s_5 (bvadd ez_6 ez_7 ez_13 ez_14))))
 (let (($x788 (= s_4 (bvadd ez_10 ez_11 ez_17 ez_18))))
 (let (($x790 (= s_3 (bvadd ez_4 ez_5 ez_11 ez_12))))
 (let (($x792 (= s_2 (bvadd ez_8 ez_9 ez_15 ez_16))))
 (let (($x794 (= s_1 (bvadd ez_2 ez_3 ez_9 ez_10))))
 (let (($x1072 (and $x794 $x792 $x790 $x788 $x786 $x784 $x782 $x780 $x778 $x1071 (= s_11 (bvadd ez_18 ez_19 ez_25 ez_26)) (= s_12 (bvadd ez_24 ez_25 ez_31 ez_32)) (= s_13 (bvadd ez_20 ez_21 ez_27 ez_28)) $x1063 $x767 $x1061 $x1059 $x1057 $x1055 $x1053 $x1051 $x1049 $x1047 $x1045 (= ez_1 ?x755))))
 (let (($x1073 (and $x1072 (and (= s_1 (bvadd cz_2 (bvadd cz_3 (bvadd cz_9 cz_10)))) $x749))))
 (let (($x805 (and (= (_ bv0 1) ez_21) (and (= (_ bv0 1) ez_22) (and (= (_ bv0 1) ez_23) (= (_ bv0 1) ez_24))))))
 (let (($x813 (and (= (_ bv0 1) ez_17) (and (= (_ bv0 1) ez_18) (and (= (_ bv0 1) ez_19) (and (= (_ bv0 1) ez_20) $x805))))))
 (let (($x821 (and (= (_ bv0 1) ez_13) (and (= (_ bv0 1) ez_14) (and (= (_ bv0 1) ez_15) (and (= (_ bv0 1) ez_16) $x813))))))
 (let (($x829 (and (= (_ bv0 1) ez_9) (and (= (_ bv0 1) ez_10) (and (= (_ bv0 1) ez_11) (and (= (_ bv0 1) ez_12) $x821))))))
 (let (($x837 (and (= (_ bv0 1) ez_5) (and (= (_ bv0 1) ez_6) (and (= (_ bv0 1) ez_7) (and (= (_ bv0 1) ez_8) $x829))))))
 (let (($x845 (and (= (_ bv0 1) ez_1) (and (= (_ bv0 1) ez_2) (and (= (_ bv0 1) ez_3) (and (= (_ bv0 1) ez_4) $x837))))))
 (let ((?x872 (bvadd (bvadd (bvadd (_ bv0 6) ((_ zero_extend 5) ez_1)) ((_ zero_extend 5) ez_2)) ((_ zero_extend 5) ez_3))))
 (let ((?x875 (bvadd (bvadd (bvadd ?x872 ((_ zero_extend 5) ez_4)) ((_ zero_extend 5) ez_5)) ((_ zero_extend 5) ez_6))))
 (let ((?x878 (bvadd (bvadd (bvadd ?x875 ((_ zero_extend 5) ez_7)) ((_ zero_extend 5) ez_8)) ((_ zero_extend 5) ez_9))))
 (let ((?x881 (bvadd (bvadd (bvadd ?x878 ((_ zero_extend 5) ez_10)) ((_ zero_extend 5) ez_11)) ((_ zero_extend 5) ez_12))))
 (let ((?x884 (bvadd (bvadd (bvadd ?x881 ((_ zero_extend 5) ez_13)) ((_ zero_extend 5) ez_14)) ((_ zero_extend 5) ez_15))))
 (let ((?x887 (bvadd (bvadd (bvadd ?x884 ((_ zero_extend 5) ez_16)) ((_ zero_extend 5) ez_17)) ((_ zero_extend 5) ez_18))))
 (let ((?x890 (bvadd (bvadd (bvadd ?x887 ((_ zero_extend 5) ez_19)) ((_ zero_extend 5) ez_20)) ((_ zero_extend 5) ez_21))))
 (let ((?x893 (bvadd (bvadd (bvadd ?x890 ((_ zero_extend 5) ez_22)) ((_ zero_extend 5) ez_23)) ((_ zero_extend 5) ez_24))))
 (let ((?x1102 (bvadd (bvadd (bvadd ?x893 ((_ zero_extend 5) ez_25)) ((_ zero_extend 5) ez_26)) ((_ zero_extend 5) ez_27))))
 (let ((?x1105 (bvadd (bvadd (bvadd ?x1102 ((_ zero_extend 5) ez_28)) ((_ zero_extend 5) ez_29)) ((_ zero_extend 5) ez_30))))
 (let ((?x1108 (bvadd (bvadd (bvadd ?x1105 ((_ zero_extend 5) ez_31)) ((_ zero_extend 5) ez_32)) ((_ zero_extend 5) ez_33))))
 (let ((?x1111 (bvadd (bvadd (bvadd ?x1108 ((_ zero_extend 5) ez_34)) ((_ zero_extend 5) ez_35)) ((_ zero_extend 5) ez_36))))
 (let ((?x1114 (bvadd (bvadd (bvadd ?x1111 ((_ zero_extend 5) ez_37)) ((_ zero_extend 5) ez_38)) ((_ zero_extend 5) ez_39))))
 (let ((?x1117 (bvadd (bvadd (bvadd ?x1114 ((_ zero_extend 5) ez_40)) ((_ zero_extend 5) ez_41)) ((_ zero_extend 5) ez_42))))
 (let ((?x1120 (bvadd (bvadd (bvadd ?x1117 ((_ zero_extend 5) ez_43)) ((_ zero_extend 5) ez_44)) ((_ zero_extend 5) ez_45))))
 (let ((?x1123 (bvadd (bvadd (bvadd ?x1120 ((_ zero_extend 5) ez_46)) ((_ zero_extend 5) ez_47)) ((_ zero_extend 5) ez_48))))
 (let (($x1125 (= (bvadd ?x1123 ((_ zero_extend 5) ez_49)) ezaux_1_49)))
 (let ((?x971 (bvadd (bvadd (bvadd (_ bv0 6) ((_ zero_extend 5) cz_1)) ((_ zero_extend 5) cz_2)) ((_ zero_extend 5) cz_3))))
 (let ((?x974 (bvadd (bvadd (bvadd ?x971 ((_ zero_extend 5) cz_4)) ((_ zero_extend 5) cz_5)) ((_ zero_extend 5) cz_6))))
 (let ((?x977 (bvadd (bvadd (bvadd ?x974 ((_ zero_extend 5) cz_7)) ((_ zero_extend 5) cz_8)) ((_ zero_extend 5) cz_9))))
 (let ((?x980 (bvadd (bvadd (bvadd ?x977 ((_ zero_extend 5) cz_10)) ((_ zero_extend 5) cz_11)) ((_ zero_extend 5) cz_12))))
 (let ((?x983 (bvadd (bvadd (bvadd ?x980 ((_ zero_extend 5) cz_13)) ((_ zero_extend 5) cz_14)) ((_ zero_extend 5) cz_15))))
 (let ((?x986 (bvadd (bvadd (bvadd ?x983 ((_ zero_extend 5) cz_16)) ((_ zero_extend 5) cz_17)) ((_ zero_extend 5) cz_18))))
 (let ((?x989 (bvadd (bvadd (bvadd ?x986 ((_ zero_extend 5) cz_19)) ((_ zero_extend 5) cz_20)) ((_ zero_extend 5) cz_21))))
 (let ((?x992 (bvadd (bvadd (bvadd ?x989 ((_ zero_extend 5) cz_22)) ((_ zero_extend 5) cz_23)) ((_ zero_extend 5) cz_24))))
 (let ((?x995 (bvadd (bvadd (bvadd ?x992 ((_ zero_extend 5) cz_25)) ((_ zero_extend 5) cz_26)) ((_ zero_extend 5) cz_27))))
 (let ((?x998 (bvadd (bvadd (bvadd ?x995 ((_ zero_extend 5) cz_28)) ((_ zero_extend 5) cz_29)) ((_ zero_extend 5) cz_30))))
 (let ((?x1001 (bvadd (bvadd (bvadd ?x998 ((_ zero_extend 5) cz_31)) ((_ zero_extend 5) cz_32)) ((_ zero_extend 5) cz_33))))
 (let ((?x1004 (bvadd (bvadd (bvadd ?x1001 ((_ zero_extend 5) cz_34)) ((_ zero_extend 5) cz_35)) ((_ zero_extend 5) cz_36))))
 (let ((?x1007 (bvadd (bvadd (bvadd ?x1004 ((_ zero_extend 5) cz_37)) ((_ zero_extend 5) cz_38)) ((_ zero_extend 5) cz_39))))
 (let ((?x1010 (bvadd (bvadd (bvadd ?x1007 ((_ zero_extend 5) cz_40)) ((_ zero_extend 5) cz_41)) ((_ zero_extend 5) cz_42))))
 (let ((?x1013 (bvadd (bvadd (bvadd ?x1010 ((_ zero_extend 5) cz_43)) ((_ zero_extend 5) cz_44)) ((_ zero_extend 5) cz_45))))
 (let ((?x1016 (bvadd (bvadd (bvadd ?x1013 ((_ zero_extend 5) cz_46)) ((_ zero_extend 5) cz_47)) ((_ zero_extend 5) cz_48))))
 (and $x845 (and $x1125 (= (bvadd ?x1016 ((_ zero_extend 5) cz_49)) czaux_1_49) $x1125 $x845) (or (not (bvule ezaux_1_49 ((_ zero_extend 4) (_ bv3 2)))) $x1073)))))))))))))))))))))))))))))))))))))))))))))))))))))))))))))))))))))))))))))))))))
 )
 )
(check-sat)